(set-info :smt-lib-version 2.6)
(set-logic QF_LIA)
(set-info :category "industrial")
(set-info :status sat)
(declare-fun x0 () Int)
(declare-fun x1 () Int)
(declare-fun x10 () Int)
(declare-fun x11 () Int)
(declare-fun x12 () Int)
(declare-fun x13 () Int)
(declare-fun x14 () Int)
(declare-fun x15 () Int)
(declare-fun x16 () Int)
(declare-fun x17 () Int)
(declare-fun x18 () Int)
(declare-fun x19 () Int)
(declare-fun x2 () Int)
(declare-fun x20 () Int)
(declare-fun x21 () Int)
(declare-fun x22 () Int)
(declare-fun x23 () Int)
(declare-fun x24 () Int)
(declare-fun x25 () Int)
(declare-fun x26 () Int)
(declare-fun x27 () Int)
(declare-fun x28 () Int)
(declare-fun x29 () Int)
(declare-fun x3 () Int)
(declare-fun x30 () Int)
(declare-fun x31 () Int)
(declare-fun x32 () Int)
(declare-fun x33 () Int)
(declare-fun x34 () Int)
(declare-fun x4 () Int)
(declare-fun x5 () Int)
(declare-fun x6 () Int)
(declare-fun x7 () Int)
(declare-fun x8 () Int)
(declare-fun x9 () Int)
(assert (let ((?v_3 (* 0 x1)) (?v_1 (* 0 x20)) (?v_23 (* 0 x4)) (?v_9 (* 0 x5)) (?v_36 (* 1 x14)) (?v_25 (* 1 x18)) (?v_61 (* 1 x24)) (?v_29 (* 1 x27)) (?v_54 (* 1 x29)) (?v_8 (* 0 x3)) (?v_63 (* 1 x32)) (?v_2 (* 1 x33)) (?v_55 (* 0 x9))) (let ((?v_119 (+ ?v_63 (+ ?v_2 ?v_55))) (?v_83 (* 0 x19)) (?v_17 (* 1 x2)) (?v_32 (* 0 x25)) (?v_7 (* 0 x26)) (?v_18 (* 1 x21)) (?v_20 (* 0 x28)) (?v_51 (* 0 x8)) (?v_37 (* 1 x23)) (?v_10 (* 1 x34)) (?v_11 (* 0 x10)) (?v_24 (* 1 x15)) (?v_15 (* 0 x2)) (?v_16 (* 0 x17)) (?v_53 (* 0 x21)) (?v_42 (* 0 x27)) (?v_38 (* 1 x30)) (?v_35 (* 0 x33)) (?v_43 (* 1 x4)) (?v_85 (* 1 x11)) (?v_39 (* 0 x14)) (?v_31 (* 0 x22)) (?v_19 (* 0 x24)) (?v_41 (* 1 x25)) (?v_33 (* 0 x29)) (?v_76 (* 1 x31)) (?v_94 (* 2 x16)) (?v_44 (* 0 x6)) (?v_64 (* 1 x3)) (?v_30 (* 1 x9)) (?v_70 (* 1 x1)) (?v_28 (* 0 x23)) (?v_79 (* 2 x5)) (?v_60 (* 0 x16)) (?v_108 (* 1 x20)) (?v_47 (* 1 x22)) (?v_34 (* 0 x32)) (?v_69 (* 0 x34)) (?v_65 (* 0 x15)) (?v_72 (* 1 x16)) (?v_71 (* 1 x17)) (?v_102 (* 1 x6)) (?v_77 (* 1 x8))) (let ((?v_120 (+ ?v_102 ?v_77)) (?v_45 (* 0 x0)) (?v_59 (* 0 x13)) (?v_48 (* 2 x21)) (?v_50 (* 0 x31)) (?v_52 (* 0 x12)) (?v_84 (* 1 x5)) (?v_73 (* 1 x26)) (?v_74 (* 1 x28)) (?v_122 (* 2 x31)) (?v_113 (* 1 x10)) (?v_89 (* 0 x11)) (?v_75 (* 0 x7)) (?v_82 (* 1 x0)) (?v_91 (* 1 x19)) (?v_87 (* 0 x18)) (?v_110 (* 1 x7)) (?v_90 (* 0 x30)) (?v_114 (* 2 x19))) (let ((?v_111 (+ ?v_55 ?v_91)) (?v_104 (* 1 x12)) (?v_115 (* 1 x13)) (?v_109 (* 2 x20)) (?v_116 (* 2 x1)) (?v_0 (* (- 1) x0)) (?v_4 (* (- 1) x16)) (?v_80 (* (- 1) x21)) (?v_96 (* (- 1) x31)) (?v_6 (* (- 1) x8)) (?v_27 (* (- 1) x6)) (?v_95 (* (- 2) x11)) (?v_57 (* (- 2) x6)) (?v_13 (* (- 1) x17)) (?v_46 (* (- 1) x18)) (?v_5 (* (- 1) x24)) (?v_21 (* (- 1) x29)) (?v_22 (* (- 1) x30)) (?v_12 (* (- 1) x13)) (?v_58 (* (- 1) x14)) (?v_78 (* (- 1) x25)) (?v_14 (* (- 1) x28)) (?v_40 (* (- 1) x23)) (?v_62 (* (- 1) x27)) (?v_49 (* (- 1) x32)) (?v_98 (* (- 1) x11)) (?v_100 (* (- 1) x15)) (?v_26 (* (- 1) x19)) (?v_67 (* (- 1) x26)) (?v_66 (* (- 1) x2)) (?v_68 (* (- 1) x7)) (?v_97 (* (- 1) x9)) (?v_56 (* (- 1) x12)) (?v_101 (* (- 1) x22)) (?v_103 (* (- 2) x33)) (?v_92 (* (- 1) x1)) (?v_107 (* (- 1) x5)) (?v_117 (* (- 1) x3)) (?v_88 (* (- 1) x10)) (?v_81 (* (- 1) x4)) (?v_86 (* (- 1) x20)) (?v_93 (* (- 1) x34)) (?v_106 (* (- 1) x33)) (?v_99 (* (- 2) x27)) (?v_105 (* (- 2) x30)) (?v_121 (* (- 2) x29)) (?v_112 (* (- 2) x17)) (?v_118 (* (- 2) x12))) (and (<= (+ ?v_0 (+ ?v_3 (+ (* (- 3) x13) (+ (* (- 3) x26) (+ ?v_4 (+ ?v_80 (+ ?v_96 (+ ?v_6 (+ ?v_1 (+ ?v_23 (+ ?v_9 (+ ?v_27 (+ ?v_36 (+ ?v_25 (+ ?v_61 (+ ?v_29 (+ ?v_54 (+ ?v_8 ?v_119)))))))))))))))))) 0) (<= (+ ?v_95 (+ ?v_57 (+ ?v_0 (+ (* 2 x10) (+ ?v_13 (+ ?v_46 (+ ?v_5 (+ ?v_21 (+ ?v_22 (+ ?v_83 (+ ?v_17 (+ ?v_1 (+ ?v_32 (+ ?v_7 (+ ?v_18 (+ ?v_20 (+ ?v_51 (+ ?v_37 (+ ?v_2 ?v_10))))))))))))))))))) 0) (<= (+ ?v_3 (+ ?v_11 (+ ?v_12 (+ ?v_58 (+ ?v_24 (+ ?v_4 (+ ?v_15 (+ ?v_5 (+ ?v_78 (+ ?v_14 (+ ?v_6 (+ ?v_16 (+ ?v_1 (+ ?v_53 (+ ?v_40 (+ ?v_7 (+ ?v_42 (+ ?v_8 (+ ?v_38 (+ ?v_35 (+ ?v_43 (+ ?v_9 ?v_10)))))))))))))))))))))) (- 1)) (<= (+ ?v_0 (+ ?v_11 (+ ?v_85 (+ ?v_12 (+ ?v_13 (+ ?v_62 (+ ?v_14 (+ ?v_49 (+ ?v_39 (+ ?v_15 (+ ?v_1 (+ ?v_31 (+ ?v_19 (+ ?v_41 (+ ?v_7 (+ ?v_33 (+ ?v_76 (+ ?v_94 (+ ?v_44 (+ ?v_64 (+ ?v_2 (+ ?v_10 ?v_30)))))))))))))))))))))) 0) (<= (+ (* (- 2) x0) (+ ?v_11 (+ ?v_98 (+ ?v_70 (+ ?v_12 (+ ?v_100 (+ ?v_16 (+ ?v_26 (+ ?v_17 (+ ?v_67 (+ ?v_18 (+ ?v_19 (+ ?v_20 (+ ?v_21 (+ ?v_22 (+ ?v_28 (+ ?v_2 (+ ?v_23 ?v_79)))))))))))))))))) (- 1)) (<= (+ ?v_3 (+ ?v_11 (+ ?v_12 (+ ?v_24 (+ ?v_60 (+ ?v_16 (+ ?v_25 (+ ?v_26 (+ ?v_17 (+ ?v_22 (+ ?v_108 (+ ?v_47 (+ ?v_27 (+ ?v_28 (+ ?v_19 (+ ?v_34 (+ ?v_69 (+ ?v_29 (+ (* 3 x31) ?v_30))))))))))))))))))) 1) (<= (+ (* (- 2) x34) (+ ?v_12 (+ ?v_65 (+ ?v_66 (+ ?v_68 (+ ?v_1 (+ ?v_31 (+ ?v_19 (+ ?v_32 (+ ?v_20 (+ ?v_33 (+ ?v_34 (+ ?v_35 (+ ?v_23 (+ ?v_97 (+ ?v_36 (+ ?v_72 (+ ?v_71 (+ ?v_26 (+ ?v_37 (+ ?v_38 ?v_120))))))))))))))))))))) 0) (<= (+ ?v_56 (+ ?v_45 (+ (* 3 x11) (+ ?v_59 (+ ?v_39 (+ ?v_26 (+ ?v_15 (+ ?v_101 (+ ?v_48 (+ ?v_40 (+ ?v_6 (+ ?v_19 (+ ?v_41 (+ ?v_7 (+ ?v_42 (+ ?v_8 (+ ?v_50 (+ ?v_38 (+ ?v_35 (+ ?v_43 (+ ?v_44 ?v_30))))))))))))))))))))) 1) (<= (+ ?v_45 (+ ?v_11 (+ ?v_52 (+ ?v_12 (+ ?v_24 (+ ?v_4 (+ ?v_46 (+ ?v_26 (+ ?v_15 (+ ?v_47 (+ ?v_48 (+ ?v_19 (+ ?v_7 (+ ?v_49 (+ ?v_33 (+ ?v_29 (+ ?v_8 (+ ?v_50 (+ ?v_2 (+ ?v_23 (+ ?v_51 (+ ?v_84 ?v_44)))))))))))))))))))))) 1) (<= (+ ?v_3 (+ ?v_11 (+ ?v_52 (+ ?v_39 (+ (* 2 x15) (+ ?v_16 (+ ?v_26 (+ ?v_17 (+ ?v_1 (+ ?v_53 (+ ?v_19 (+ ?v_50 (+ ?v_41 (+ ?v_73 (+ ?v_23 (+ ?v_74 (+ ?v_54 (+ (* 2 x23) (+ ?v_8 (+ ?v_10 (+ (* 3 x5) ?v_55))))))))))))))))))))) 0) (<= (+ ?v_103 (+ ?v_92 (+ ?v_56 (+ ?v_57 (+ ?v_58 (+ ?v_45 (+ ?v_59 (+ ?v_60 (+ ?v_26 (+ ?v_15 (+ ?v_32 (+ ?v_7 (+ ?v_48 (+ ?v_61 (+ ?v_62 (+ ?v_122 (+ ?v_63 (+ ?v_107 ?v_64)))))))))))))))))) 0) (<= (+ ?v_45 (+ ?v_65 (+ ?v_113 (+ ?v_16 (+ ?v_26 (+ ?v_66 (+ ?v_67 (+ ?v_53 (+ ?v_47 (+ ?v_61 (+ ?v_41 (+ ?v_62 (+ ?v_14 (+ ?v_28 (+ ?v_117 (+ ?v_22 (+ ?v_68 (+ ?v_2 (+ ?v_69 (+ (* 2 x4) (+ ?v_9 (+ ?v_44 (+ ?v_51 ?v_30))))))))))))))))))))))) 0) (<= (+ ?v_89 (+ ?v_52 (+ ?v_70 (+ ?v_24 (+ ?v_71 (+ ?v_1 (+ ?v_53 (+ ?v_72 (+ ?v_41 (+ ?v_73 (+ ?v_62 (+ ?v_35 (+ ?v_23 (+ ?v_9 (+ ?v_74 (+ ?v_10 (+ ?v_44 (+ ?v_75 (+ ?v_51 ?v_82))))))))))))))))))) 0) (<= (+ ?v_88 (+ ?v_56 (+ ?v_4 (+ ?v_66 (+ ?v_45 (+ ?v_3 (+ ?v_65 (+ ?v_16 (+ ?v_1 (+ ?v_53 (+ ?v_19 (+ ?v_20 (+ ?v_34 (+ ?v_35 (+ ?v_23 (+ ?v_75 (+ ?v_91 (+ ?v_37 (+ ?v_41 (+ ?v_73 (+ ?v_38 (+ ?v_76 ?v_77)))))))))))))))))))))) 0) (<= (+ ?v_78 (+ ?v_52 (+ ?v_81 (+ ?v_70 (+ ?v_59 (+ ?v_39 (+ ?v_65 (+ ?v_60 (+ ?v_16 (+ ?v_15 (+ ?v_28 (+ ?v_73 (+ ?v_42 (+ ?v_63 (+ ?v_69 (+ ?v_79 (+ ?v_44 (+ ?v_75 (+ ?v_77 ?v_55))))))))))))))))))) 0) (<= (+ ?v_52 (+ ?v_70 (+ ?v_86 (+ ?v_80 (+ ?v_62 (+ ?v_81 (+ ?v_27 (+ ?v_82 (+ ?v_59 (+ ?v_39 (+ ?v_16 (+ ?v_87 (+ (* 2 x2) (+ ?v_33 (+ ?v_50 (+ ?v_35 (+ ?v_75 (+ ?v_51 (+ ?v_72 (+ ?v_83 (+ ?v_74 ?v_84))))))))))))))))))))) 0) (<= (+ ?v_11 (+ ?v_52 (+ ?v_85 (+ (* (- 2) x5) (+ ?v_86 (+ ?v_82 (+ ?v_59 (+ ?v_39 (+ ?v_65 (+ ?v_60 (+ ?v_71 (+ ?v_87 (+ ?v_15 (+ ?v_53 (+ ?v_31 (+ ?v_28 (+ ?v_19 (+ ?v_41 (+ (* 2 x26) (+ ?v_20 (+ ?v_33 (+ ?v_8 (+ ?v_34 (+ ?v_23 (+ ?v_51 (+ ?v_10 (+ ?v_44 ?v_110))))))))))))))))))))))))))) 0) (<= (+ ?v_88 (+ (* (- 2) x32) (+ ?v_3 (+ ?v_4 (+ ?v_86 (+ ?v_80 (+ ?v_5 (+ ?v_78 (+ ?v_81 (+ ?v_27 (+ ?v_45 (+ ?v_59 (+ ?v_71 (+ ?v_47 (+ ?v_28 (+ ?v_20 (+ ?v_90 (+ ?v_50 (+ ?v_35 (+ ?v_51 (+ ?v_29 (+ ?v_54 ?v_114)))))))))))))))))))))) (- 1)) (<= (+ ?v_88 (+ ?v_89 (+ ?v_70 (+ ?v_58 (+ ?v_4 (+ ?v_86 (+ ?v_80 (+ ?v_93 (+ ?v_27 (+ ?v_59 (+ ?v_24 (+ ?v_15 (+ ?v_25 (+ ?v_28 (+ ?v_61 (+ (* 2 x25) (+ ?v_42 (+ ?v_90 (+ ?v_50 (+ ?v_63 (+ ?v_2 (+ ?v_9 (+ ?v_74 ?v_111))))))))))))))))))))))) 1) (<= (+ ?v_92 (+ ?v_46 (+ ?v_40 (+ ?v_5 (+ ?v_106 (+ ?v_93 (+ ?v_27 (+ ?v_82 (+ ?v_59 (+ ?v_24 (+ ?v_16 (+ ?v_15 (+ ?v_53 (+ ?v_50 (+ ?v_41 (+ ?v_73 (+ ?v_23 (+ ?v_94 (+ ?v_91 (+ (* 2 x22) (+ ?v_29 (+ (* 2 x8) (* 2 x9))))))))))))))))))))))) 0) (<= (+ ?v_88 (+ ?v_95 (+ ?v_78 (+ ?v_3 (+ ?v_104 (+ ?v_99 (+ ?v_58 (+ ?v_96 (+ ?v_97 (+ ?v_45 (+ ?v_59 (+ ?v_25 (+ (* (- 2) x19) (+ ?v_15 (+ ?v_53 (+ ?v_19 (+ ?v_7 (+ ?v_20 (+ ?v_90 (+ ?v_37 (+ ?v_43 (* 2 x32)))))))))))))))))))))) 0) (<= (+ ?v_98 (+ ?v_3 (+ ?v_11 (+ ?v_52 (+ ?v_99 (+ ?v_12 (+ ?v_100 (+ ?v_101 (+ ?v_21 (+ ?v_81 (+ ?v_97 (+ (* 2 x14) (+ ?v_83 (+ ?v_17 (+ ?v_1 (+ ?v_28 (+ ?v_32 (+ ?v_20 (+ ?v_8 (+ (* 2 x33) (+ ?v_69 ?v_75))))))))))))))))))))) (- 1)) (<= (+ ?v_89 (+ ?v_24 (+ ?v_4 (+ ?v_67 (+ ?v_25 (+ ?v_62 (+ ?v_21 (+ ?v_96 (+ ?v_49 (+ ?v_93 (+ ?v_59 (+ ?v_83 (+ ?v_15 (+ ?v_1 (+ ?v_32 (+ ?v_18 (+ ?v_19 (+ ?v_20 (+ ?v_8 (+ ?v_75 (+ ?v_102 ?v_55))))))))))))))))))))) 0) (<= (+ ?v_105 (+ ?v_98 (+ ?v_78 (+ ?v_52 (+ ?v_49 (+ ?v_3 (+ ?v_16 (+ ?v_97 (+ ?v_82 (+ ?v_59 (+ ?v_72 (+ ?v_83 (+ ?v_17 (+ ?v_31 (+ ?v_19 (+ ?v_33 (+ ?v_8 (+ ?v_50 (+ ?v_2 (+ ?v_23 (+ ?v_9 (+ ?v_44 ?v_75)))))))))))))))))))))) (- 1)) (<= (+ ?v_98 (+ ?v_52 (+ ?v_13 (+ ?v_80 (+ ?v_101 (+ ?v_78 (+ ?v_70 (+ ?v_121 (+ ?v_49 (+ ?v_60 (+ ?v_87 (+ ?v_115 (+ ?v_83 (+ ?v_1 (+ ?v_28 (+ ?v_42 (+ ?v_20 (+ ?v_8 (+ ?v_90 (+ ?v_2 (+ ?v_9 (+ ?v_51 (+ ?v_10 ?v_44))))))))))))))))))))))) 0) (<= (+ ?v_103 (+ ?v_3 (+ ?v_104 (+ ?v_24 (+ ?v_46 (+ ?v_40 (+ ?v_97 (+ ?v_45 (+ ?v_59 (+ ?v_36 (+ ?v_83 (+ ?v_15 (+ ?v_1 (+ ?v_32 (+ ?v_47 (+ ?v_19 (+ ?v_42 (+ ?v_20 (+ ?v_33 (+ ?v_90 (+ ?v_76 (+ ?v_69 (+ ?v_44 ?v_64))))))))))))))))))))))) 0) (<= (+ ?v_88 (+ ?v_24 (+ ?v_105 (+ ?v_106 (+ ?v_85 (+ ?v_93 (+ ?v_107 (+ ?v_6 (+ ?v_60 (+ ?v_16 (+ ?v_17 (+ ?v_53 (+ ?v_19 (+ ?v_7 (+ ?v_50 (+ ?v_23 (+ ?v_108 (+ ?v_28 (+ ?v_74 (+ ?v_8 (+ ?v_44 ?v_55))))))))))))))))))))) 0) (<= (+ ?v_11 (+ ?v_89 (+ ?v_65 (+ ?v_104 (+ ?v_112 (+ ?v_68 (+ ?v_6 (+ ?v_60 (+ ?v_31 (+ ?v_32 (+ ?v_7 (+ ?v_50 (+ ?v_35 (+ ?v_18 (+ ?v_69 (+ ?v_9 (+ ?v_55 (+ ?v_82 (+ ?v_109 ?v_29))))))))))))))))))) 0) (<= (+ ?v_88 (+ ?v_3 (+ ?v_65 (+ ?v_85 (+ ?v_4 (+ ?v_46 (+ ?v_31 (+ ?v_22 (+ ?v_19 (+ ?v_73 (+ ?v_109 (+ ?v_42 (+ ?v_76 (+ ?v_51 (+ ?v_43 (+ ?v_84 (+ ?v_102 (+ ?v_110 ?v_111)))))))))))))))))) (- 1)) (<= (+ ?v_56 (+ ?v_65 (+ ?v_66 (+ ?v_80 (+ ?v_96 (+ ?v_3 (+ ?v_16 (+ ?v_86 (+ ?v_87 (+ ?v_19 (+ ?v_32 (+ ?v_7 (+ ?v_42 (+ ?v_33 (+ ?v_35 (+ ?v_69 (+ ?v_23 (+ ?v_9 (+ ?v_44 (+ ?v_51 (+ ?v_55 ?v_37))))))))))))))))))))) 0) (<= (+ ?v_11 (+ ?v_65 (+ ?v_112 (+ ?v_66 (+ (* (- 2) x4) (+ ?v_5 (+ ?v_21 (+ ?v_22 (+ ?v_87 (+ ?v_1 (+ ?v_7 (+ ?v_42 (+ ?v_50 (+ ?v_9 (+ ?v_75 (+ ?v_36 (+ ?v_72 (+ ?v_18 (+ ?v_47 (+ ?v_63 (+ ?v_102 (+ (* 2 x0) ?v_8)))))))))))))))))))))) 0) (<= (+ ?v_118 (+ ?v_0 (+ ?v_113 (+ ?v_98 (+ ?v_58 (+ ?v_13 (+ ?v_1 (+ ?v_31 (+ ?v_19 (+ ?v_32 (+ ?v_72 (+ ?v_62 (+ ?v_14 (+ ?v_38 (+ ?v_35 (+ ?v_63 (+ ?v_9 (+ ?v_10 (+ ?v_27 (+ ?v_59 (+ ?v_75 (+ ?v_55 (+ ?v_37 (+ ?v_114 (* 2 x3))))))))))))))))))))))))) (- 1)) (<= (+ ?v_98 (+ ?v_3 (+ ?v_24 (+ ?v_4 (+ ?v_14 (+ ?v_16 (+ ?v_87 (+ ?v_31 (+ ?v_40 (+ ?v_19 (+ ?v_7 (+ ?v_42 (+ ?v_44 (+ ?v_75 (+ ?v_82 (+ ?v_36 (+ ?v_54 (+ ?v_64 (+ ?v_63 (+ ?v_2 (+ ?v_10 ?v_84))))))))))))))))))))) 0) (<= (+ ?v_88 (+ (* (- 3) x11) (+ ?v_13 (+ ?v_101 (+ ?v_96 (+ ?v_45 (+ ?v_52 (+ ?v_116 (+ ?v_60 (+ ?v_1 (+ ?v_7 (+ ?v_18 (+ ?v_19 (+ ?v_42 (+ ?v_69 (+ ?v_23 (+ ?v_51 (+ ?v_115 (+ ?v_83 (+ ?v_54 ?v_63)))))))))))))))))))) (- 1)) (<= (+ ?v_56 (+ ?v_3 (+ ?v_58 (+ ?v_4 (+ ?v_13 (+ ?v_46 (+ ?v_53 (+ ?v_47 (+ ?v_21 (+ ?v_107 (+ ?v_6 (+ ?v_97 (+ ?v_28 (+ ?v_20 (+ ?v_50 (+ ?v_34 (+ ?v_69 (+ ?v_44 (+ ?v_75 (+ ?v_82 (+ ?v_115 (+ ?v_83 ?v_41)))))))))))))))))))))) 0) (<= (+ ?v_88 (+ ?v_98 (+ ?v_96 (+ ?v_45 (+ ?v_52 (+ ?v_116 (+ ?v_39 (+ ?v_65 (+ ?v_1 (+ ?v_47 (+ ?v_28 (+ ?v_7 (+ ?v_90 (+ ?v_61 (+ ?v_69 (+ ?v_23 (+ ?v_44 (+ ?v_75 (+ ?v_51 (+ ?v_55 (+ ?v_115 (+ ?v_72 ?v_117)))))))))))))))))))))) (- 1)) (<= (+ ?v_118 (+ ?v_65 (+ ?v_13 (+ ?v_15 (+ ?v_19 (+ ?v_14 (+ ?v_50 (+ ?v_70 (+ ?v_85 (+ ?v_87 (+ ?v_33 (+ ?v_9 (+ ?v_115 (+ ?v_72 (+ ?v_108 (+ ?v_29 (+ ?v_117 (+ ?v_38 ?v_119)))))))))))))))))) 1) (<= (+ ?v_66 (+ ?v_3 (+ ?v_11 (+ ?v_65 (+ ?v_85 (+ ?v_16 (+ (* (- 2) x20) (+ ?v_58 (+ ?v_78 (+ ?v_68 (+ ?v_53 (+ ?v_31 (+ ?v_93 (+ ?v_60 (+ ?v_28 (+ ?v_7 (+ ?v_42 (+ ?v_23 (+ ?v_55 (+ ?v_91 (+ ?v_61 (+ ?v_8 ?v_120)))))))))))))))))))))) 0) (<= (+ ?v_56 (+ ?v_99 (+ ?v_45 (+ ?v_113 (+ ?v_89 (+ ?v_12 (+ ?v_58 (+ ?v_65 (+ ?v_13 (+ ?v_107 (+ ?v_60 (+ ?v_87 (+ ?v_31 (+ ?v_32 (+ ?v_23 (+ ?v_75 (+ ?v_97 (+ ?v_91 (+ (* 2 x24) (+ ?v_8 (+ ?v_38 (* 3 x6)))))))))))))))))))))) 0) (<= (+ ?v_116 (+ ?v_12 (+ ?v_65 (+ ?v_66 (+ ?v_101 (+ ?v_5 (+ ?v_21 (+ ?v_96 (+ ?v_87 (+ ?v_1 (+ ?v_32 (+ ?v_7 (+ ?v_20 (+ ?v_35 (+ ?v_69 (+ ?v_36 (+ ?v_72 (+ ?v_71 (+ ?v_91 (+ ?v_29 (+ ?v_8 (+ ?v_38 ?v_30)))))))))))))))))))))) 0) (<= (+ ?v_98 (+ ?v_52 (+ ?v_13 (+ ?v_15 (+ ?v_101 (+ ?v_70 (+ ?v_121 (+ ?v_62 (+ ?v_68 (+ ?v_59 (+ ?v_60 (+ ?v_35 (+ ?v_25 (+ ?v_55 (+ ?v_91 (+ ?v_108 (+ ?v_37 (+ ?v_61 (+ ?v_41 (+ ?v_74 (+ ?v_8 (+ ?v_38 (+ ?v_122 ?v_10))))))))))))))))))))))) 0) (<= (+ ?v_88 (+ ?v_45 (+ (* 2 x12) (+ ?v_12 (+ ?v_65 (+ ?v_60 (+ ?v_31 (+ ?v_32 (+ ?v_61 (+ (* 2 x18) (+ ?v_42 (+ ?v_33 (+ ?v_50 (+ ?v_38 (+ ?v_35 (+ ?v_10 (+ ?v_97 (+ ?v_36 (+ ?v_91 ?v_64))))))))))))))))))) 0) (<= (+ ?v_92 (+ ?v_89 (+ ?v_52 (+ ?v_58 (+ ?v_24 (+ ?v_4 (+ ?v_80 (+ ?v_67 (+ ?v_22 (+ ?v_96 (+ ?v_106 (+ ?v_16 (+ ?v_15 (+ ?v_93 (+ ?v_42 (+ ?v_20 (+ ?v_23 (+ ?v_82 (+ ?v_91 (+ ?v_64 (+ ?v_63 ?v_102))))))))))))))))))))) 1) (<= (+ ?v_11 (+ ?v_98 (+ ?v_100 (+ (* (- 2) x28) (+ ?v_13 (+ ?v_101 (+ ?v_7 (+ ?v_49 (+ ?v_23 (+ ?v_75 (+ ?v_70 (+ ?v_104 (+ ?v_21 (+ ?v_93 (+ ?v_45 (+ ?v_115 (+ ?v_36 (+ ?v_25 (+ ?v_91 (+ ?v_17 (+ ?v_117 ?v_84))))))))))))))))))))) 0) (<= (+ ?v_100 (+ ?v_113 (+ ?v_46 (+ ?v_80 (+ ?v_5 (+ ?v_49 (+ ?v_60 (+ ?v_17 (+ ?v_1 (+ ?v_31 (+ ?v_32 (+ ?v_7 (+ ?v_20 (+ ?v_90 (+ ?v_50 (+ ?v_51 (+ ?v_55 (+ ?v_37 (+ ?v_64 (+ ?v_43 ?v_110)))))))))))))))))))) 0)))))))
(check-sat)
(exit)
